p tw 29 2031 2 
1 4 
1 6 
1 8 
1 10 
1 12 
1 14 
1 16 
1 18 
1 20 
1 22 
1 24 
1 26 
1 28 
2 3 
2 5 
2 8 
2 10 
2 14 
2 15 
2 18 
2 19 
2 21 
2 22 
2 23 
2 24 
2 25 
3 5 
3 7 
3 8 
3 10 
3 12 
3 13 
3 14 
3 17 
3 18 
3 21 
3 27 
3 28 
3 29 
4 5 
4 7 
4 10 
4 12 
4 16 
4 17 
4 20 
4 21 
4 23 
4 24 
4 25 
4 26 
4 27 
5 7 
5 9 
5 10 
5 12 
5 14 
5 15 
5 16 
5 19 
5 20 
5 23 
5 29 
6 7 
6 9 
6 12 
6 14 
6 18 
6 19 
6 22 
6 23 
6 25 
6 26 
6 27 
6 28 
6 29 
7 9 
7 11 
7 12 
7 14 
7 16 
7 17 
7 18 
7 21 
7 22 
7 25 
8 9 
8 11 
8 14 
8 16 
8 20 
8 21 
8 24 
8 25 
8 27 
8 28 
8 29 
9 11 
9 13 
9 14 
9 16 
9 18 
9 19 
9 20 
9 23 
9 24 
9 27 
10 11 
10 13 
10 16 
10 18 
10 22 
10 23 
10 26 
10 27 
10 29 
11 13 
11 15 
11 16 
11 18 
11 20 
11 21 
11 22 
11 25 
11 26 
11 29 
12 13 
12 15 
12 18 
12 20 
12 24 
12 25 
12 28 
12 29 
13 15 
13 17 
13 18 
13 20 
13 22 
13 23 
13 24 
13 27 
13 28 
14 15 
14 17 
14 20 
14 22 
14 26 
14 27 
15 17 
15 19 
15 20 
15 22 
15 24 
15 25 
15 26 
15 29 
16 17 
16 19 
16 22 
16 24 
16 28 
16 29 
17 19 
17 21 
17 22 
17 24 
17 26 
17 27 
17 28 
18 19 
18 21 
18 24 
18 26 
19 21 
19 23 
19 24 
19 26 
19 28 
19 29 
20 21 
20 23 
20 26 
20 28 
21 23 
21 25 
21 26 
21 28 
22 23 
22 25 
22 28 
23 25 
23 27 
23 28 
24 25 
24 27 
25 27 
25 29 
26 27 
26 29 
27 29 
28 29 
